1 1 -2 0
1 3 0
1 4 0
1 -5 -6 0
1 -7 8 0
1 -7 9 0
1 -10 0
1 -2 -8 0
1 11 12 0
1 -11 -8 0
1 -2 9 0
1 13 0
1 8 12 0
1 9 -13 0
1 7 9 0
1 14 0
1 15 0
1 8 -4 0
1 16 0
1 17 18 0
1 7 -9 0
1 -19 0
1 -11 2 0
1 18 -3 0
1 -18 2 0
1 -13 9 0
1 -9 -5 0
1 9 7 0
1 -2 11 0
1 -1 0
1 -7 -9 0
1 4 -7 0
1 -8 12 0
1 1 -9 0
1 -1 -9 0
1 9 0
1 -7 11 0
1 2 -7 0
1 7 2 0
1 7 -8 0
1 18 0
1 19 -2 0
1 -7 -16 0
1 -6 8 0
1 3 7 0
1 -12 0
1 -17 -9 0
1 8 0
1 -9 -10 0
1 -8 -9 0
1 7 -2 0
1 10 -6 0
1 -10 -14 0
1 -2 -15 0
1 20 0
1 -16 13 0
1 -2 -18 0
1 9 8 0
1 -15 -7 0
1 20 7 0
1 8 2 0
1 -8 7 0
1 -4 -2 0
1 -11 0
1 -8 2 0
1 -6 0
1 2 -16 0
1 -16 19 0
1 -11 4 0
1 -20 -2 0
1 9 -7 0
1 -17 9 0
1 -2 0
1 -18 7 0
1 2 -17 0
1 -2 -10 0
1 2 -11 0
1 12 -2 0
1 20 8 0
1 7 0
1 -9 10 0
1 13 -9 0
1 8 -9 0
1 8 -15 0
1 -5 -2 0
1 5 -2 0
1 -21 0
1 -22 23 0
1 -24 -25 0
1 -26 0
1 27 0
1 28 29 0
1 30 -31 0
1 -32 -30 0
1 33 0
1 30 -25 0
1 -24 7 0
1 -21 32 0
1 31 0
1 24 -30 0
1 -11 31 0
1 -34 0
1 -30 -21 0
1 29 -30 0
1 -14 -23 0
1 34 -26 0
1 21 31 0
1 -35 0
1 -32 -29 0
1 -30 0
1 -34 30 0
1 29 7 0
1 36 0
1 30 36 0
1 -21 35 0
1 -27 25 0
1 -24 28 0
1 -34 21 0
1 -37 0
1 -38 0
1 7 -24 0
1 -39 34 0
1 40 29 0
1 24 -9 0
1 -31 -34 0
1 25 31 0
1 30 -32 0
1 -32 24 0
1 25 -24 0
1 15 31 0
1 -27 22 0
1 -21 -29 0
1 24 39 0
1 -21 -34 0
1 -29 -26 0
1 30 25 0
1 26 -34 0
1 -21 -26 0
1 -21 -25 0
1 9 -37 0
1 -21 -24 0
1 -25 -31 0
1 30 8 0
1 24 2 0
1 -24 29 0
1 37 -31 0
1 -31 -24 0
1 38 -30 0
1 30 -40 0
1 34 29 0
1 -31 2 0
1 -33 -25 0
1 -30 -24 0
1 2 -30 0
1 -2 -21 0
1 -31 26 0
1 21 34 0
1 29 25 0
1 -35 -25 0
1 -34 6 0
1 2 -41 -39 0
1 25 -34 0
1 -30 34 0
1 -30 -29 0
1 -24 0
1 21 -32 0
1 24 31 0
1 -24 27 0
1 31 34 0
1 -22 0
1 34 -29 0
1 -24 -31 0
1 38 34 0
1 -31 25 0
1 -34 28 0
1 34 21 0
1 -34 24 0
1 32 0
1 21 30 0
1 -29 7 0
1 34 24 0
1 28 -31 0
1 -37 34 0
1 -25 27 0
1 24 38 0
1 21 -34 0
1 21 40 0
1 8 -34 0
1 24 34 0
1 30 29 0
1 -19 -9 0
1 25 24 0
1 -24 -30 0
1 30 -29 0
1 -21 13 0
1 -28 0
1 -39 -30 0
1 27 29 0
1 17 0
1 30 -21 0
1 25 30 0
1 7 -26 0
1 4 40 0
1 -31 -21 0
1 25 -21 0
1 -21 25 0
1 23 21 0
1 -34 -16 0
1 -2 34 0
1 -39 28 0
1 -24 37 0
1 -31 -12 0
1 23 -24 0
1 -21 31 0
1 -29 -21 0
1 40 0
1 -36 -21 0
1 -2 29 0
1 -39 25 0
1 29 18 0
1 13 -39 0
1 2 -24 0
1 -24 25 0
1 21 -28 0
1 40 -21 0
1 34 32 0
1 -24 31 0
1 30 31 0
1 -29 -24 0
1 28 24 0
306885651 -25 0
394202300 -39 0
1 -29 0
1 -34 32 0
1 23 0
1 -25 8 0
1 25 34 0
1 5 0
1 34 -33 0
1 21 32 0
1 -34 -25 0
1 -30 25 0
1 35 24 0
1 21 36 0
1 -29 34 0
1 40 34 0
1 34 -21 0
1 -21 -31 0
1 -8 -40 0
h 42 43 0
1 -42 0
h 44 45 0
1 -44 0
h 46 -47 0
1 -46 0
h 48 -49 0
1 -48 0
h 50 -31 0
1745821902 -50 0
h 51 25 0
452759802 -51 0
h 41 2 0
h -41 -2 0
h 52 8 0
1148789042 -52 0
h 53 -31 0
256453686 -53 0
